(set-logic QF_BV)

(declare-const __ESBMC_ptr_obj_start_0 (_ BitVec 64))

(declare-const __ESBMC_ptr_obj_end_0 (_ BitVec 64))

(declare-const __ESBMC_ptr_obj_start_1 (_ BitVec 64))

(declare-const __ESBMC_ptr_obj_end_1 (_ BitVec 64))

(declare-const |smt_conv::__ESBMC_ptr_addr_range_0..start0| (_ BitVec 64))

(declare-const |smt_conv::__ESBMC_ptr_addr_range_0..end0| (_ BitVec 64))

(declare-const |smt_conv::__ESBMC_ptr_addr_range_1..start0| (_ BitVec 64))

(declare-const |smt_conv::__ESBMC_ptr_addr_range_1..end0| (_ BitVec 64))

(declare-const |smt_conv::smt_conv::collate_array_vals::3..start0| (_ BitVec 64))

(declare-const |smt_conv::smt_conv::collate_array_vals::3..end0| (_ BitVec 64))

(declare-const |smt_conv::smt_conv::collate_array_vals::4..start0| (_ BitVec 64))

(declare-const |smt_conv::smt_conv::collate_array_vals::4..end0| (_ BitVec 64))

(declare-const |smt_conv::smt_conv::collate_array_vals::7..start0| (_ BitVec 64))

(declare-const |smt_conv::smt_conv::collate_array_vals::7..end0| (_ BitVec 64))

(declare-const |c:Piecewise.c@283@F@main@q?1!0&0#1| (_ BitVec 32))

(declare-const |nondet$symex::nondet88| (_ BitVec 32))

(declare-const |c:Piecewise.c@283@F@main@p?1!0&0#1| (_ BitVec 32))

(declare-const |nondet$symex::nondet89| (_ BitVec 32))

(declare-const |goto_symex::guard?0!0&0#1| (_ BitVec 1))

(declare-const |goto_symex::guard?0!0&0#2| (_ BitVec 1))

(declare-const |c:Piecewise.c@283@F@main@q?1!0&0#2| (_ BitVec 32))

(declare-const |c:Piecewise.c@283@F@main@p?1!0&0#2| (_ BitVec 32))

(declare-const |nondet$symex::nondet90| (_ BitVec 32))

(declare-const |c:Piecewise.c@283@F@main@q?1!0&0#3| (_ BitVec 32))

(declare-const |c:Piecewise.c@283@F@main@p?1!0&0#3| (_ BitVec 32))

(declare-const |goto_symex::guard?0!0&0#3| (_ BitVec 1))

(declare-const |c:Piecewise.c@283@F@main@p?1!0&0#4| (_ BitVec 32))

(declare-const |c:Piecewise.c@283@F@main@q?1!0&0#4| (_ BitVec 32))

(declare-const |nondet$symex::nondet91| (_ BitVec 32))

(declare-const |c:Piecewise.c@283@F@main@q?1!0&0#5| (_ BitVec 32))

(declare-const |c:Piecewise.c@283@F@main@p?1!0&0#5| (_ BitVec 32))

(declare-const |c:Piecewise.c@283@F@main@q?1!0&0#6| (_ BitVec 32))

(declare-const |c:Piecewise.c@283@F@main@p?1!0&0#6| (_ BitVec 32))

(declare-const |goto_symex::guard?0!0&0#4| (_ BitVec 1))

(declare-const |goto_symex::guard?0!0&0#5| (_ BitVec 1))

(declare-const |c:Piecewise.c@283@F@main@q?1!0&0#7| (_ BitVec 32))

(declare-const |c:Piecewise.c@283@F@main@p?1!0&0#7| (_ BitVec 32))

(declare-const |nondet$symex::nondet92| (_ BitVec 32))

(declare-const |c:Piecewise.c@283@F@main@q?1!0&0#8| (_ BitVec 32))

(declare-const |c:Piecewise.c@283@F@main@p?1!0&0#8| (_ BitVec 32))

(declare-const |goto_symex::guard?0!0&0#6| (_ BitVec 1))

(declare-const |c:Piecewise.c@283@F@main@p?1!0&0#9| (_ BitVec 32))

(declare-const |c:Piecewise.c@283@F@main@q?1!0&0#9| (_ BitVec 32))

(declare-const |nondet$symex::nondet93| (_ BitVec 32))

(declare-const |c:Piecewise.c@283@F@main@q?1!0&0#10| (_ BitVec 32))

(declare-const |c:Piecewise.c@283@F@main@p?1!0&0#10| (_ BitVec 32))

(declare-const |c:Piecewise.c@283@F@main@q?1!0&0#11| (_ BitVec 32))

(declare-const |c:Piecewise.c@283@F@main@p?1!0&0#11| (_ BitVec 32))

(declare-const |goto_symex::guard?0!0&0#7| (_ BitVec 1))

(declare-const |goto_symex::guard?0!0&0#8| (_ BitVec 1))

(declare-const |c:Piecewise.c@283@F@main@q?1!0&0#12| (_ BitVec 32))

(declare-const |c:Piecewise.c@283@F@main@p?1!0&0#12| (_ BitVec 32))

(declare-const |nondet$symex::nondet94| (_ BitVec 32))

(declare-const |c:Piecewise.c@283@F@main@q?1!0&0#13| (_ BitVec 32))

(declare-const |c:Piecewise.c@283@F@main@p?1!0&0#13| (_ BitVec 32))

(declare-const |goto_symex::guard?0!0&0#9| (_ BitVec 1))

(declare-const |c:Piecewise.c@283@F@main@p?1!0&0#14| (_ BitVec 32))

(declare-const |c:Piecewise.c@283@F@main@q?1!0&0#14| (_ BitVec 32))

(declare-const |nondet$symex::nondet95| (_ BitVec 32))

(declare-const |c:Piecewise.c@283@F@main@q?1!0&0#15| (_ BitVec 32))

(declare-const |c:Piecewise.c@283@F@main@p?1!0&0#15| (_ BitVec 32))

(declare-const |c:Piecewise.c@283@F@main@q?1!0&0#16| (_ BitVec 32))

(declare-const |c:Piecewise.c@283@F@main@p?1!0&0#16| (_ BitVec 32))

(declare-const |goto_symex::guard?0!0&0#10| (_ BitVec 1))

(declare-const |goto_symex::guard?0!0&0#11| (_ BitVec 1))

(declare-const |c:Piecewise.c@283@F@main@q?1!0&0#17| (_ BitVec 32))

(declare-const |c:Piecewise.c@283@F@main@p?1!0&0#17| (_ BitVec 32))

(declare-const |nondet$symex::nondet96| (_ BitVec 32))

(declare-const |c:Piecewise.c@283@F@main@q?1!0&0#18| (_ BitVec 32))

(declare-const |c:Piecewise.c@283@F@main@p?1!0&0#18| (_ BitVec 32))

(declare-const |goto_symex::guard?0!0&0#12| (_ BitVec 1))

(declare-const |c:Piecewise.c@283@F@main@p?1!0&0#19| (_ BitVec 32))

(declare-const |c:Piecewise.c@283@F@main@q?1!0&0#19| (_ BitVec 32))

(declare-const |nondet$symex::nondet97| (_ BitVec 32))

(declare-const |c:Piecewise.c@283@F@main@q?1!0&0#20| (_ BitVec 32))

(declare-const |c:Piecewise.c@283@F@main@p?1!0&0#20| (_ BitVec 32))

(declare-const |c:Piecewise.c@283@F@main@q?1!0&0#21| (_ BitVec 32))

(declare-const |c:Piecewise.c@283@F@main@p?1!0&0#21| (_ BitVec 32))

(declare-const |goto_symex::guard?0!0&0#13| (_ BitVec 1))

(declare-const |goto_symex::guard?0!0&0#14| (_ BitVec 1))

(declare-const |c:Piecewise.c@283@F@main@q?1!0&0#22| (_ BitVec 32))

(declare-const |c:Piecewise.c@283@F@main@p?1!0&0#22| (_ BitVec 32))

(declare-const |nondet$symex::nondet98| (_ BitVec 32))

(declare-const |c:Piecewise.c@283@F@main@q?1!0&0#23| (_ BitVec 32))

(declare-const |c:Piecewise.c@283@F@main@p?1!0&0#23| (_ BitVec 32))

(declare-const |goto_symex::guard?0!0&0#15| (_ BitVec 1))

(declare-const |c:Piecewise.c@283@F@main@p?1!0&0#24| (_ BitVec 32))

(declare-const |c:Piecewise.c@283@F@main@q?1!0&0#24| (_ BitVec 32))

(declare-const |nondet$symex::nondet99| (_ BitVec 32))

(declare-const |c:Piecewise.c@283@F@main@q?1!0&0#25| (_ BitVec 32))

(declare-const |c:Piecewise.c@283@F@main@p?1!0&0#25| (_ BitVec 32))

(declare-const |c:Piecewise.c@283@F@main@q?1!0&0#26| (_ BitVec 32))

(declare-const |c:Piecewise.c@283@F@main@p?1!0&0#26| (_ BitVec 32))

(declare-const |goto_symex::guard?0!0&0#16| (_ BitVec 1))

(declare-const |goto_symex::guard?0!0&0#17| (_ BitVec 1))

(declare-const |c:Piecewise.c@283@F@main@q?1!0&0#27| (_ BitVec 32))

(declare-const |c:Piecewise.c@283@F@main@p?1!0&0#27| (_ BitVec 32))

(declare-const |nondet$symex::nondet100| (_ BitVec 32))

(declare-const |c:Piecewise.c@283@F@main@q?1!0&0#28| (_ BitVec 32))

(declare-const |c:Piecewise.c@283@F@main@p?1!0&0#28| (_ BitVec 32))

(declare-const |goto_symex::guard?0!0&0#18| (_ BitVec 1))

(declare-const |c:Piecewise.c@283@F@main@p?1!0&0#29| (_ BitVec 32))

(declare-const |c:Piecewise.c@283@F@main@q?1!0&0#29| (_ BitVec 32))

(declare-const |nondet$symex::nondet101| (_ BitVec 32))

(declare-const |c:Piecewise.c@283@F@main@q?1!0&0#30| (_ BitVec 32))

(declare-const |c:Piecewise.c@283@F@main@p?1!0&0#30| (_ BitVec 32))

(declare-const |c:Piecewise.c@283@F@main@q?1!0&0#31| (_ BitVec 32))

(declare-const |c:Piecewise.c@283@F@main@p?1!0&0#31| (_ BitVec 32))

(declare-const |goto_symex::guard?0!0&0#19| (_ BitVec 1))

(declare-const |goto_symex::guard?0!0&0#20| (_ BitVec 1))

(declare-const |c:Piecewise.c@283@F@main@q?1!0&0#32| (_ BitVec 32))

(declare-const |c:Piecewise.c@283@F@main@p?1!0&0#32| (_ BitVec 32))

(declare-const |nondet$symex::nondet102| (_ BitVec 32))

(declare-const |c:Piecewise.c@283@F@main@q?1!0&0#33| (_ BitVec 32))

(declare-const |c:Piecewise.c@283@F@main@p?1!0&0#33| (_ BitVec 32))

(declare-const |goto_symex::guard?0!0&0#21| (_ BitVec 1))

(declare-const |c:Piecewise.c@283@F@main@p?1!0&0#34| (_ BitVec 32))

(declare-const |c:Piecewise.c@283@F@main@q?1!0&0#34| (_ BitVec 32))

(declare-const |nondet$symex::nondet103| (_ BitVec 32))

(declare-const |c:Piecewise.c@283@F@main@q?1!0&0#35| (_ BitVec 32))

(declare-const |c:Piecewise.c@283@F@main@p?1!0&0#35| (_ BitVec 32))

(declare-const |c:Piecewise.c@283@F@main@q?1!0&0#36| (_ BitVec 32))

(declare-const |c:Piecewise.c@283@F@main@p?1!0&0#36| (_ BitVec 32))

(declare-const |goto_symex::guard?0!0&0#22| (_ BitVec 1))

(declare-const |goto_symex::guard?0!0&0#23| (_ BitVec 1))

(declare-const |c:Piecewise.c@283@F@main@q?1!0&0#37| (_ BitVec 32))

(declare-const |c:Piecewise.c@283@F@main@p?1!0&0#37| (_ BitVec 32))

(declare-const |nondet$symex::nondet104| (_ BitVec 32))

(declare-const |c:Piecewise.c@283@F@main@q?1!0&0#38| (_ BitVec 32))

(declare-const |c:Piecewise.c@283@F@main@p?1!0&0#38| (_ BitVec 32))

(declare-const |goto_symex::guard?0!0&0#24| (_ BitVec 1))

(declare-const |c:Piecewise.c@283@F@main@p?1!0&0#39| (_ BitVec 32))

(declare-const |c:Piecewise.c@283@F@main@q?1!0&0#39| (_ BitVec 32))

(declare-const |nondet$symex::nondet105| (_ BitVec 32))

(declare-const |c:Piecewise.c@283@F@main@q?1!0&0#40| (_ BitVec 32))

(declare-const |c:Piecewise.c@283@F@main@p?1!0&0#40| (_ BitVec 32))

(declare-const |c:Piecewise.c@283@F@main@q?1!0&0#41| (_ BitVec 32))

(declare-const |c:Piecewise.c@283@F@main@p?1!0&0#41| (_ BitVec 32))

(declare-const |goto_symex::guard?0!0&0#25| (_ BitVec 1))

(declare-const |execution_statet::guard_exec?0!0| (_ BitVec 1))

(assert 

 (= __ESBMC_ptr_obj_start_0 #b0000000000000000000000000000000000000000000000000000000000000000))

(assert 

 (= #b0000000000000000000000000000000000000000000000000000000000000000 __ESBMC_ptr_obj_end_0))

(assert 

 (= __ESBMC_ptr_obj_start_1 #b0000000000000000000000000000000000000000000000000000000000000001))

(assert 

 (= #b1111111111111111111111111111111111111111111111111111111111111111 __ESBMC_ptr_obj_end_1))

(assert 

 (= __ESBMC_ptr_obj_end_0 |smt_conv::__ESBMC_ptr_addr_range_0..end0|))

(assert 

 (= __ESBMC_ptr_obj_start_0 |smt_conv::__ESBMC_ptr_addr_range_0..start0|))

(assert 

 (= __ESBMC_ptr_obj_end_1 |smt_conv::__ESBMC_ptr_addr_range_1..end0|))

(assert 

 (= __ESBMC_ptr_obj_start_1 |smt_conv::__ESBMC_ptr_addr_range_1..start0|))

(assert 

 (= |smt_conv::smt_conv::collate_array_vals::3..end0| |smt_conv::smt_conv::collate_array_vals::4..end0|))

(assert 

 (= |smt_conv::smt_conv::collate_array_vals::3..start0| |smt_conv::smt_conv::collate_array_vals::4..start0|))

(assert 

 (= __ESBMC_ptr_obj_end_0 |smt_conv::smt_conv::collate_array_vals::7..end0|))

(assert 

 (= __ESBMC_ptr_obj_start_0 |smt_conv::smt_conv::collate_array_vals::7..start0|))

(assert 

 (= |c:Piecewise.c@283@F@main@q?1!0&0#1| |nondet$symex::nondet88|))

(assert 

 (= |c:Piecewise.c@283@F@main@p?1!0&0#1| |nondet$symex::nondet89|))

(assert 

 (= |goto_symex::guard?0!0&0#1| 

  (ite 

   (and 

    (bvslt #b00000000000000000000000000000000 |c:Piecewise.c@283@F@main@p?1!0&0#1|) 

    (bvslt #b00000000000000000000000000000000 |c:Piecewise.c@283@F@main@q?1!0&0#1|) 

    (not 

     (= |c:Piecewise.c@283@F@main@q?1!0&0#1| |c:Piecewise.c@283@F@main@p?1!0&0#1|))) #b1 #b0)))

(assert 

 (= |goto_symex::guard?0!0&0#2| 

  (ite 

   (bvslt |c:Piecewise.c@283@F@main@q?1!0&0#1| |c:Piecewise.c@283@F@main@p?1!0&0#1|) #b1 #b0)))

(assert 

 (= |c:Piecewise.c@283@F@main@q?1!0&0#2| 

  (bvadd #b11111111111111111111111111111111 |c:Piecewise.c@283@F@main@q?1!0&0#1|)))

(assert 

 (= |c:Piecewise.c@283@F@main@p?1!0&0#2| |nondet$symex::nondet90|))

(assert 

 (= |c:Piecewise.c@283@F@main@q?1!0&0#1| |c:Piecewise.c@283@F@main@q?1!0&0#3|))

(assert 

 (= |c:Piecewise.c@283@F@main@p?1!0&0#1| |c:Piecewise.c@283@F@main@p?1!0&0#3|))

(assert 

 (= |goto_symex::guard?0!0&0#3| 

  (ite 

   (bvslt |c:Piecewise.c@283@F@main@p?1!0&0#3| |c:Piecewise.c@283@F@main@q?1!0&0#3|) #b1 #b0)))

(assert 

 (= |c:Piecewise.c@283@F@main@p?1!0&0#4| 

  (bvadd #b11111111111111111111111111111111 |c:Piecewise.c@283@F@main@p?1!0&0#3|)))

(assert 

 (= |c:Piecewise.c@283@F@main@q?1!0&0#4| |nondet$symex::nondet91|))

(assert 

 (= |c:Piecewise.c@283@F@main@q?1!0&0#5| 

  (ite 

   (= #b1 |goto_symex::guard?0!0&0#3|) |c:Piecewise.c@283@F@main@q?1!0&0#4| |c:Piecewise.c@283@F@main@q?1!0&0#3|)))

(assert 

 (= |c:Piecewise.c@283@F@main@p?1!0&0#5| 

  (ite 

   (= #b1 |goto_symex::guard?0!0&0#3|) |c:Piecewise.c@283@F@main@p?1!0&0#4| |c:Piecewise.c@283@F@main@p?1!0&0#3|)))

(assert 

 (= |c:Piecewise.c@283@F@main@q?1!0&0#6| 

  (ite 

   (= #b1 |goto_symex::guard?0!0&0#2|) |c:Piecewise.c@283@F@main@q?1!0&0#2| |c:Piecewise.c@283@F@main@q?1!0&0#5|)))

(assert 

 (= |c:Piecewise.c@283@F@main@p?1!0&0#6| 

  (ite 

   (= #b1 |goto_symex::guard?0!0&0#2|) |c:Piecewise.c@283@F@main@p?1!0&0#2| |c:Piecewise.c@283@F@main@p?1!0&0#5|)))

(assert 

 (= |goto_symex::guard?0!0&0#4| 

  (ite 

   (and 

    (bvslt #b00000000000000000000000000000000 |c:Piecewise.c@283@F@main@p?1!0&0#6|) 

    (bvslt #b00000000000000000000000000000000 |c:Piecewise.c@283@F@main@q?1!0&0#6|) 

    (not 

     (= |c:Piecewise.c@283@F@main@q?1!0&0#6| |c:Piecewise.c@283@F@main@p?1!0&0#6|))) #b1 #b0)))

(assert 

 (= |goto_symex::guard?0!0&0#5| 

  (ite 

   (bvslt |c:Piecewise.c@283@F@main@q?1!0&0#6| |c:Piecewise.c@283@F@main@p?1!0&0#6|) #b1 #b0)))

(assert 

 (= |c:Piecewise.c@283@F@main@q?1!0&0#7| 

  (bvadd #b11111111111111111111111111111111 |c:Piecewise.c@283@F@main@q?1!0&0#6|)))

(assert 

 (= |c:Piecewise.c@283@F@main@p?1!0&0#7| |nondet$symex::nondet92|))

(assert 

 (= |c:Piecewise.c@283@F@main@q?1!0&0#6| |c:Piecewise.c@283@F@main@q?1!0&0#8|))

(assert 

 (= |c:Piecewise.c@283@F@main@p?1!0&0#6| |c:Piecewise.c@283@F@main@p?1!0&0#8|))

(assert 

 (= |goto_symex::guard?0!0&0#6| 

  (ite 

   (bvslt |c:Piecewise.c@283@F@main@p?1!0&0#8| |c:Piecewise.c@283@F@main@q?1!0&0#8|) #b1 #b0)))

(assert 

 (= |c:Piecewise.c@283@F@main@p?1!0&0#9| 

  (bvadd #b11111111111111111111111111111111 |c:Piecewise.c@283@F@main@p?1!0&0#8|)))

(assert 

 (= |c:Piecewise.c@283@F@main@q?1!0&0#9| |nondet$symex::nondet93|))

(assert 

 (= |c:Piecewise.c@283@F@main@q?1!0&0#10| 

  (ite 

   (= #b1 |goto_symex::guard?0!0&0#6|) |c:Piecewise.c@283@F@main@q?1!0&0#9| |c:Piecewise.c@283@F@main@q?1!0&0#8|)))

(assert 

 (= |c:Piecewise.c@283@F@main@p?1!0&0#10| 

  (ite 

   (= #b1 |goto_symex::guard?0!0&0#6|) |c:Piecewise.c@283@F@main@p?1!0&0#9| |c:Piecewise.c@283@F@main@p?1!0&0#8|)))

(assert 

 (= |c:Piecewise.c@283@F@main@q?1!0&0#11| 

  (ite 

   (= #b1 |goto_symex::guard?0!0&0#5|) |c:Piecewise.c@283@F@main@q?1!0&0#7| |c:Piecewise.c@283@F@main@q?1!0&0#10|)))

(assert 

 (= |c:Piecewise.c@283@F@main@p?1!0&0#11| 

  (ite 

   (= #b1 |goto_symex::guard?0!0&0#5|) |c:Piecewise.c@283@F@main@p?1!0&0#7| |c:Piecewise.c@283@F@main@p?1!0&0#10|)))

(assert 

 (= |goto_symex::guard?0!0&0#7| 

  (ite 

   (and 

    (bvslt #b00000000000000000000000000000000 |c:Piecewise.c@283@F@main@p?1!0&0#11|) 

    (bvslt #b00000000000000000000000000000000 |c:Piecewise.c@283@F@main@q?1!0&0#11|) 

    (not 

     (= |c:Piecewise.c@283@F@main@q?1!0&0#11| |c:Piecewise.c@283@F@main@p?1!0&0#11|))) #b1 #b0)))

(assert 

 (= |goto_symex::guard?0!0&0#8| 

  (ite 

   (bvslt |c:Piecewise.c@283@F@main@q?1!0&0#11| |c:Piecewise.c@283@F@main@p?1!0&0#11|) #b1 #b0)))

(assert 

 (= |c:Piecewise.c@283@F@main@q?1!0&0#12| 

  (bvadd #b11111111111111111111111111111111 |c:Piecewise.c@283@F@main@q?1!0&0#11|)))

(assert 

 (= |c:Piecewise.c@283@F@main@p?1!0&0#12| |nondet$symex::nondet94|))

(assert 

 (= |c:Piecewise.c@283@F@main@q?1!0&0#11| |c:Piecewise.c@283@F@main@q?1!0&0#13|))

(assert 

 (= |c:Piecewise.c@283@F@main@p?1!0&0#11| |c:Piecewise.c@283@F@main@p?1!0&0#13|))

(assert 

 (= |goto_symex::guard?0!0&0#9| 

  (ite 

   (bvslt |c:Piecewise.c@283@F@main@p?1!0&0#13| |c:Piecewise.c@283@F@main@q?1!0&0#13|) #b1 #b0)))

(assert 

 (= |c:Piecewise.c@283@F@main@p?1!0&0#14| 

  (bvadd #b11111111111111111111111111111111 |c:Piecewise.c@283@F@main@p?1!0&0#13|)))

(assert 

 (= |c:Piecewise.c@283@F@main@q?1!0&0#14| |nondet$symex::nondet95|))

(assert 

 (= |c:Piecewise.c@283@F@main@q?1!0&0#15| 

  (ite 

   (= #b1 |goto_symex::guard?0!0&0#9|) |c:Piecewise.c@283@F@main@q?1!0&0#14| |c:Piecewise.c@283@F@main@q?1!0&0#13|)))

(assert 

 (= |c:Piecewise.c@283@F@main@p?1!0&0#15| 

  (ite 

   (= #b1 |goto_symex::guard?0!0&0#9|) |c:Piecewise.c@283@F@main@p?1!0&0#14| |c:Piecewise.c@283@F@main@p?1!0&0#13|)))

(assert 

 (= |c:Piecewise.c@283@F@main@q?1!0&0#16| 

  (ite 

   (= #b1 |goto_symex::guard?0!0&0#8|) |c:Piecewise.c@283@F@main@q?1!0&0#12| |c:Piecewise.c@283@F@main@q?1!0&0#15|)))

(assert 

 (= |c:Piecewise.c@283@F@main@p?1!0&0#16| 

  (ite 

   (= #b1 |goto_symex::guard?0!0&0#8|) |c:Piecewise.c@283@F@main@p?1!0&0#12| |c:Piecewise.c@283@F@main@p?1!0&0#15|)))

(assert 

 (= |goto_symex::guard?0!0&0#10| 

  (ite 

   (and 

    (bvslt #b00000000000000000000000000000000 |c:Piecewise.c@283@F@main@p?1!0&0#16|) 

    (bvslt #b00000000000000000000000000000000 |c:Piecewise.c@283@F@main@q?1!0&0#16|) 

    (not 

     (= |c:Piecewise.c@283@F@main@q?1!0&0#16| |c:Piecewise.c@283@F@main@p?1!0&0#16|))) #b1 #b0)))

(assert 

 (= |goto_symex::guard?0!0&0#11| 

  (ite 

   (bvslt |c:Piecewise.c@283@F@main@q?1!0&0#16| |c:Piecewise.c@283@F@main@p?1!0&0#16|) #b1 #b0)))

(assert 

 (= |c:Piecewise.c@283@F@main@q?1!0&0#17| 

  (bvadd #b11111111111111111111111111111111 |c:Piecewise.c@283@F@main@q?1!0&0#16|)))

(assert 

 (= |c:Piecewise.c@283@F@main@p?1!0&0#17| |nondet$symex::nondet96|))

(assert 

 (= |c:Piecewise.c@283@F@main@q?1!0&0#16| |c:Piecewise.c@283@F@main@q?1!0&0#18|))

(assert 

 (= |c:Piecewise.c@283@F@main@p?1!0&0#16| |c:Piecewise.c@283@F@main@p?1!0&0#18|))

(assert 

 (= |goto_symex::guard?0!0&0#12| 

  (ite 

   (bvslt |c:Piecewise.c@283@F@main@p?1!0&0#18| |c:Piecewise.c@283@F@main@q?1!0&0#18|) #b1 #b0)))

(assert 

 (= |c:Piecewise.c@283@F@main@p?1!0&0#19| 

  (bvadd #b11111111111111111111111111111111 |c:Piecewise.c@283@F@main@p?1!0&0#18|)))

(assert 

 (= |c:Piecewise.c@283@F@main@q?1!0&0#19| |nondet$symex::nondet97|))

(assert 

 (= |c:Piecewise.c@283@F@main@q?1!0&0#20| 

  (ite 

   (= #b1 |goto_symex::guard?0!0&0#12|) |c:Piecewise.c@283@F@main@q?1!0&0#19| |c:Piecewise.c@283@F@main@q?1!0&0#18|)))

(assert 

 (= |c:Piecewise.c@283@F@main@p?1!0&0#20| 

  (ite 

   (= #b1 |goto_symex::guard?0!0&0#12|) |c:Piecewise.c@283@F@main@p?1!0&0#19| |c:Piecewise.c@283@F@main@p?1!0&0#18|)))

(assert 

 (= |c:Piecewise.c@283@F@main@q?1!0&0#21| 

  (ite 

   (= #b1 |goto_symex::guard?0!0&0#11|) |c:Piecewise.c@283@F@main@q?1!0&0#17| |c:Piecewise.c@283@F@main@q?1!0&0#20|)))

(assert 

 (= |c:Piecewise.c@283@F@main@p?1!0&0#21| 

  (ite 

   (= #b1 |goto_symex::guard?0!0&0#11|) |c:Piecewise.c@283@F@main@p?1!0&0#17| |c:Piecewise.c@283@F@main@p?1!0&0#20|)))

(assert 

 (= |goto_symex::guard?0!0&0#13| 

  (ite 

   (and 

    (bvslt #b00000000000000000000000000000000 |c:Piecewise.c@283@F@main@p?1!0&0#21|) 

    (bvslt #b00000000000000000000000000000000 |c:Piecewise.c@283@F@main@q?1!0&0#21|) 

    (not 

     (= |c:Piecewise.c@283@F@main@q?1!0&0#21| |c:Piecewise.c@283@F@main@p?1!0&0#21|))) #b1 #b0)))

(assert 

 (= |goto_symex::guard?0!0&0#14| 

  (ite 

   (bvslt |c:Piecewise.c@283@F@main@q?1!0&0#21| |c:Piecewise.c@283@F@main@p?1!0&0#21|) #b1 #b0)))

(assert 

 (= |c:Piecewise.c@283@F@main@q?1!0&0#22| 

  (bvadd #b11111111111111111111111111111111 |c:Piecewise.c@283@F@main@q?1!0&0#21|)))

(assert 

 (= |c:Piecewise.c@283@F@main@p?1!0&0#22| |nondet$symex::nondet98|))

(assert 

 (= |c:Piecewise.c@283@F@main@q?1!0&0#21| |c:Piecewise.c@283@F@main@q?1!0&0#23|))

(assert 

 (= |c:Piecewise.c@283@F@main@p?1!0&0#21| |c:Piecewise.c@283@F@main@p?1!0&0#23|))

(assert 

 (= |goto_symex::guard?0!0&0#15| 

  (ite 

   (bvslt |c:Piecewise.c@283@F@main@p?1!0&0#23| |c:Piecewise.c@283@F@main@q?1!0&0#23|) #b1 #b0)))

(assert 

 (= |c:Piecewise.c@283@F@main@p?1!0&0#24| 

  (bvadd #b11111111111111111111111111111111 |c:Piecewise.c@283@F@main@p?1!0&0#23|)))

(assert 

 (= |c:Piecewise.c@283@F@main@q?1!0&0#24| |nondet$symex::nondet99|))

(assert 

 (= |c:Piecewise.c@283@F@main@q?1!0&0#25| 

  (ite 

   (= #b1 |goto_symex::guard?0!0&0#15|) |c:Piecewise.c@283@F@main@q?1!0&0#24| |c:Piecewise.c@283@F@main@q?1!0&0#23|)))

(assert 

 (= |c:Piecewise.c@283@F@main@p?1!0&0#25| 

  (ite 

   (= #b1 |goto_symex::guard?0!0&0#15|) |c:Piecewise.c@283@F@main@p?1!0&0#24| |c:Piecewise.c@283@F@main@p?1!0&0#23|)))

(assert 

 (= |c:Piecewise.c@283@F@main@q?1!0&0#26| 

  (ite 

   (= #b1 |goto_symex::guard?0!0&0#14|) |c:Piecewise.c@283@F@main@q?1!0&0#22| |c:Piecewise.c@283@F@main@q?1!0&0#25|)))

(assert 

 (= |c:Piecewise.c@283@F@main@p?1!0&0#26| 

  (ite 

   (= #b1 |goto_symex::guard?0!0&0#14|) |c:Piecewise.c@283@F@main@p?1!0&0#22| |c:Piecewise.c@283@F@main@p?1!0&0#25|)))

(assert 

 (= |goto_symex::guard?0!0&0#16| 

  (ite 

   (and 

    (bvslt #b00000000000000000000000000000000 |c:Piecewise.c@283@F@main@p?1!0&0#26|) 

    (bvslt #b00000000000000000000000000000000 |c:Piecewise.c@283@F@main@q?1!0&0#26|) 

    (not 

     (= |c:Piecewise.c@283@F@main@q?1!0&0#26| |c:Piecewise.c@283@F@main@p?1!0&0#26|))) #b1 #b0)))

(assert 

 (= |goto_symex::guard?0!0&0#17| 

  (ite 

   (bvslt |c:Piecewise.c@283@F@main@q?1!0&0#26| |c:Piecewise.c@283@F@main@p?1!0&0#26|) #b1 #b0)))

(assert 

 (= |c:Piecewise.c@283@F@main@q?1!0&0#27| 

  (bvadd #b11111111111111111111111111111111 |c:Piecewise.c@283@F@main@q?1!0&0#26|)))

(assert 

 (= |c:Piecewise.c@283@F@main@p?1!0&0#27| |nondet$symex::nondet100|))

(assert 

 (= |c:Piecewise.c@283@F@main@q?1!0&0#26| |c:Piecewise.c@283@F@main@q?1!0&0#28|))

(assert 

 (= |c:Piecewise.c@283@F@main@p?1!0&0#26| |c:Piecewise.c@283@F@main@p?1!0&0#28|))

(assert 

 (= |goto_symex::guard?0!0&0#18| 

  (ite 

   (bvslt |c:Piecewise.c@283@F@main@p?1!0&0#28| |c:Piecewise.c@283@F@main@q?1!0&0#28|) #b1 #b0)))

(assert 

 (= |c:Piecewise.c@283@F@main@p?1!0&0#29| 

  (bvadd #b11111111111111111111111111111111 |c:Piecewise.c@283@F@main@p?1!0&0#28|)))

(assert 

 (= |c:Piecewise.c@283@F@main@q?1!0&0#29| |nondet$symex::nondet101|))

(assert 

 (= |c:Piecewise.c@283@F@main@q?1!0&0#30| 

  (ite 

   (= #b1 |goto_symex::guard?0!0&0#18|) |c:Piecewise.c@283@F@main@q?1!0&0#29| |c:Piecewise.c@283@F@main@q?1!0&0#28|)))

(assert 

 (= |c:Piecewise.c@283@F@main@p?1!0&0#30| 

  (ite 

   (= #b1 |goto_symex::guard?0!0&0#18|) |c:Piecewise.c@283@F@main@p?1!0&0#29| |c:Piecewise.c@283@F@main@p?1!0&0#28|)))

(assert 

 (= |c:Piecewise.c@283@F@main@q?1!0&0#31| 

  (ite 

   (= #b1 |goto_symex::guard?0!0&0#17|) |c:Piecewise.c@283@F@main@q?1!0&0#27| |c:Piecewise.c@283@F@main@q?1!0&0#30|)))

(assert 

 (= |c:Piecewise.c@283@F@main@p?1!0&0#31| 

  (ite 

   (= #b1 |goto_symex::guard?0!0&0#17|) |c:Piecewise.c@283@F@main@p?1!0&0#27| |c:Piecewise.c@283@F@main@p?1!0&0#30|)))

(assert 

 (= |goto_symex::guard?0!0&0#19| 

  (ite 

   (and 

    (bvslt #b00000000000000000000000000000000 |c:Piecewise.c@283@F@main@p?1!0&0#31|) 

    (bvslt #b00000000000000000000000000000000 |c:Piecewise.c@283@F@main@q?1!0&0#31|) 

    (not 

     (= |c:Piecewise.c@283@F@main@q?1!0&0#31| |c:Piecewise.c@283@F@main@p?1!0&0#31|))) #b1 #b0)))

(assert 

 (= |goto_symex::guard?0!0&0#20| 

  (ite 

   (bvslt |c:Piecewise.c@283@F@main@q?1!0&0#31| |c:Piecewise.c@283@F@main@p?1!0&0#31|) #b1 #b0)))

(assert 

 (= |c:Piecewise.c@283@F@main@q?1!0&0#32| 

  (bvadd #b11111111111111111111111111111111 |c:Piecewise.c@283@F@main@q?1!0&0#31|)))

(assert 

 (= |c:Piecewise.c@283@F@main@p?1!0&0#32| |nondet$symex::nondet102|))

(assert 

 (= |c:Piecewise.c@283@F@main@q?1!0&0#31| |c:Piecewise.c@283@F@main@q?1!0&0#33|))

(assert 

 (= |c:Piecewise.c@283@F@main@p?1!0&0#31| |c:Piecewise.c@283@F@main@p?1!0&0#33|))

(assert 

 (= |goto_symex::guard?0!0&0#21| 

  (ite 

   (bvslt |c:Piecewise.c@283@F@main@p?1!0&0#33| |c:Piecewise.c@283@F@main@q?1!0&0#33|) #b1 #b0)))

(assert 

 (= |c:Piecewise.c@283@F@main@p?1!0&0#34| 

  (bvadd #b11111111111111111111111111111111 |c:Piecewise.c@283@F@main@p?1!0&0#33|)))

(assert 

 (= |c:Piecewise.c@283@F@main@q?1!0&0#34| |nondet$symex::nondet103|))

(assert 

 (= |c:Piecewise.c@283@F@main@q?1!0&0#35| 

  (ite 

   (= #b1 |goto_symex::guard?0!0&0#21|) |c:Piecewise.c@283@F@main@q?1!0&0#34| |c:Piecewise.c@283@F@main@q?1!0&0#33|)))

(assert 

 (= |c:Piecewise.c@283@F@main@p?1!0&0#35| 

  (ite 

   (= #b1 |goto_symex::guard?0!0&0#21|) |c:Piecewise.c@283@F@main@p?1!0&0#34| |c:Piecewise.c@283@F@main@p?1!0&0#33|)))

(assert 

 (= |c:Piecewise.c@283@F@main@q?1!0&0#36| 

  (ite 

   (= #b1 |goto_symex::guard?0!0&0#20|) |c:Piecewise.c@283@F@main@q?1!0&0#32| |c:Piecewise.c@283@F@main@q?1!0&0#35|)))

(assert 

 (= |c:Piecewise.c@283@F@main@p?1!0&0#36| 

  (ite 

   (= #b1 |goto_symex::guard?0!0&0#20|) |c:Piecewise.c@283@F@main@p?1!0&0#32| |c:Piecewise.c@283@F@main@p?1!0&0#35|)))

(assert 

 (= |goto_symex::guard?0!0&0#22| 

  (ite 

   (and 

    (bvslt #b00000000000000000000000000000000 |c:Piecewise.c@283@F@main@p?1!0&0#36|) 

    (bvslt #b00000000000000000000000000000000 |c:Piecewise.c@283@F@main@q?1!0&0#36|) 

    (not 

     (= |c:Piecewise.c@283@F@main@q?1!0&0#36| |c:Piecewise.c@283@F@main@p?1!0&0#36|))) #b1 #b0)))

(assert 

 (= |goto_symex::guard?0!0&0#23| 

  (ite 

   (bvslt |c:Piecewise.c@283@F@main@q?1!0&0#36| |c:Piecewise.c@283@F@main@p?1!0&0#36|) #b1 #b0)))

(assert 

 (= |c:Piecewise.c@283@F@main@q?1!0&0#37| 

  (bvadd #b11111111111111111111111111111111 |c:Piecewise.c@283@F@main@q?1!0&0#36|)))

(assert 

 (= |c:Piecewise.c@283@F@main@p?1!0&0#37| |nondet$symex::nondet104|))

(assert 

 (= |c:Piecewise.c@283@F@main@q?1!0&0#36| |c:Piecewise.c@283@F@main@q?1!0&0#38|))

(assert 

 (= |c:Piecewise.c@283@F@main@p?1!0&0#36| |c:Piecewise.c@283@F@main@p?1!0&0#38|))

(assert 

 (= |goto_symex::guard?0!0&0#24| 

  (ite 

   (bvslt |c:Piecewise.c@283@F@main@p?1!0&0#38| |c:Piecewise.c@283@F@main@q?1!0&0#38|) #b1 #b0)))

(assert 

 (= |c:Piecewise.c@283@F@main@p?1!0&0#39| 

  (bvadd #b11111111111111111111111111111111 |c:Piecewise.c@283@F@main@p?1!0&0#38|)))

(assert 

 (= |c:Piecewise.c@283@F@main@q?1!0&0#39| |nondet$symex::nondet105|))

(assert 

 (= |c:Piecewise.c@283@F@main@q?1!0&0#40| 

  (ite 

   (= #b1 |goto_symex::guard?0!0&0#24|) |c:Piecewise.c@283@F@main@q?1!0&0#39| |c:Piecewise.c@283@F@main@q?1!0&0#38|)))

(assert 

 (= |c:Piecewise.c@283@F@main@p?1!0&0#40| 

  (ite 

   (= #b1 |goto_symex::guard?0!0&0#24|) |c:Piecewise.c@283@F@main@p?1!0&0#39| |c:Piecewise.c@283@F@main@p?1!0&0#38|)))

(assert 

 (= |c:Piecewise.c@283@F@main@q?1!0&0#41| 

  (ite 

   (= #b1 |goto_symex::guard?0!0&0#23|) |c:Piecewise.c@283@F@main@q?1!0&0#37| |c:Piecewise.c@283@F@main@q?1!0&0#40|)))

(assert 

 (= |c:Piecewise.c@283@F@main@p?1!0&0#41| 

  (ite 

   (= #b1 |goto_symex::guard?0!0&0#23|) |c:Piecewise.c@283@F@main@p?1!0&0#37| |c:Piecewise.c@283@F@main@p?1!0&0#40|)))

(assert 

 (= |goto_symex::guard?0!0&0#25| 

  (ite 

   (and 

    (bvslt #b00000000000000000000000000000000 |c:Piecewise.c@283@F@main@p?1!0&0#41|) 

    (bvslt #b00000000000000000000000000000000 |c:Piecewise.c@283@F@main@q?1!0&0#41|) 

    (not 

     (= |c:Piecewise.c@283@F@main@q?1!0&0#41| |c:Piecewise.c@283@F@main@p?1!0&0#41|))) #b1 #b0)))

(assert (= |execution_statet::guard_exec?0!0| #b1))

(assert (= |goto_symex::guard?0!0&0#25| #b1))

(assert (= |goto_symex::guard?0!0&0#22| #b1))

(assert (= |goto_symex::guard?0!0&0#19| #b1))

(assert (= |goto_symex::guard?0!0&0#16| #b1))

(assert (= |goto_symex::guard?0!0&0#13| #b1))

(assert (= |goto_symex::guard?0!0&0#10| #b1))

(assert (= |goto_symex::guard?0!0&0#7| #b1))

(assert (= |goto_symex::guard?0!0&0#4| #b1))

(assert (= |goto_symex::guard?0!0&0#1| #b1))

(check-sat)

(exit)
